20
2 0 4
3 0 5
3 1 5
3 2 1
4 0 2
4 1 6
5 0 5
5 1 3
5 3 5
5 4 7
6 0 1
6 2 1
7 1 5
7 2 3
8 6 4
9 2 1
9 3 2
9 4 7
9 6 2
9 7 8
9 8 5
10 2 6
10 3 4
10 6 3
11 0 6
11 1 2
11 2 5
11 5 2
11 6 3
12 1 2
12 2 4
12 4 7
12 9 7
12 11 7
13 0 2
13 3 7
13 5 2
13 8 6
13 9 5
13 10 3
13 11 6
14 1 4
14 2 2
14 3 1
14 10 4
14 12 2
14 13 3
15 0 8
15 3 7
15 8 1
15 10 4
15 12 8
16 1 7
16 4 3
16 7 1
16 8 3
16 9 5
16 11 5
16 12 4
16 14 5
16 15 4
17 0 5
17 1 5
17 4 3
17 5 3
17 7 4
17 9 4
17 12 2
17 13 8
17 15 3
17 16 8
18 0 1
18 1 3
18 2 2
18 3 8
18 5 6
18 6 8
18 7 7
18 10 8
18 12 7
18 14 4
18 15 8
18 16 7
19 4 5
19 5 1
19 8 5
19 11 8
19 13 7
19 14 8
19 16 4
